3 3 2
20 0 154 2 15 0 89 1 194 2 86 0 129 2 175 1 146 2 181 1 14 0 123 1 122 0 23 1 87 2 182 0 66 2 10 0 67 1 102 0 26 
20 2 191 1 144 0 38 1 41 2 92 0 28 1 197 2 90 0 37 2 169 1 53 0 35 1 127 2 65 1 76 0 81 2 175 1 43 2 84 0 95 
20 1 158 2 106 1 0 2 48 0 109 2 96 1 109 2 25 0 55 1 172 0 191 2 176 1 104 2 67 0 97 2 31 0 42 2 85 0 126 2 141 

-------------
